data;
param nombreJob := 6;
param nombreRessource := 3;
param duree := 1 7 2 2 3 4 4 5 5 8 6 10;
param capaciteRessource := 1 4 2 14 3 18;
param besoinRessource : 1 2 3 :=
                    1   2 3 1
                    2   1 5 8
                    3   3 2 9
                    4   3 4 7
                    5   3 1 10
                    6   2 4 1;
end;

